60
1 0 20
2 0 22
2 1 6
3 0 10
3 1 33
3 2 37
4 0 1
4 1 16
4 2 3
4 3 27
5 0 7
5 1 29
5 2 21
5 3 9
5 4 32
6 0 4
6 1 14
6 2 14
6 3 24
6 4 13
6 5 27
7 0 1
7 1 11
7 2 15
7 3 36
7 4 15
7 5 38
7 6 18
8 0 31
8 1 6
8 2 12
8 3 5
8 4 33
8 5 19
8 6 22
8 7 4
9 0 14
9 1 9
9 2 39
9 3 36
9 4 25
9 7 32
10 0 26
10 1 34
10 2 2
10 3 24
10 4 12
10 5 13
10 6 28
10 7 34
10 8 10
10 9 14
11 0 22
11 1 3
11 2 27
11 3 8
11 4 10
11 6 36
11 8 25
11 9 28
11 10 8
12 0 37
12 1 12
12 2 21
12 3 14
12 4 7
12 5 30
12 6 32
12 7 10
12 8 38
12 9 31
12 10 14
12 11 34
13 0 1
13 1 10
13 2 36
13 3 18
13 4 8
13 5 32
13 6 19
13 7 12
13 8 32
13 9 11
13 10 8
13 11 38
13 12 14
14 0 32
14 1 11
14 2 23
14 3 23
14 4 10
14 5 31
14 6 8
14 7 5
14 8 19
14 9 14
14 10 15
14 12 18
14 13 8
15 0 16
15 1 13
15 2 35
15 3 20
15 4 6
15 5 22
15 6 21
15 7 8
15 8 22
15 9 38
15 10 18
15 11 33
15 12 21
15 13 6
15 14 13
16 0 6
16 1 24
16 2 1
16 3 1
16 4 25
16 5 1
16 6 32
16 7 27
16 8 31
16 9 23
16 10 12
16 11 19
16 13 19
16 14 39
16 15 12
17 0 33
17 1 16
17 2 19
17 3 38
17 4 4
17 5 7
17 6 5
17 7 28
17 8 12
17 9 25
17 10 24
17 11 19
17 12 38
17 13 33
17 14 12
17 15 37
18 0 30
18 1 9
18 2 22
18 4 5
18 5 31
18 6 12
18 8 7
18 9 30
18 10 33
18 11 14
18 12 6
18 13 30
18 14 40
18 15 40
18 16 18
18 17 32
19 0 3
19 1 29
19 2 27
19 3 24
19 4 39
19 5 12
19 6 8
19 9 10
19 10 28
19 11 5
19 12 36
19 13 25
19 14 1
19 15 31
19 16 38
19 17 4
19 18 37
20 0 20
20 1 38
20 2 30
20 3 11
20 4 19
20 5 4
20 6 23
20 7 34
20 8 11
20 9 32
20 10 40
20 11 19
20 12 2
20 13 13
20 14 37
20 15 15
20 16 32
20 17 3
20 18 15
20 19 31
21 1 33
21 2 14
21 3 10
21 4 22
21 5 5
21 6 19
21 7 19
21 8 24
21 9 29
21 10 11
21 11 5
21 12 30
21 13 19
21 14 16
21 16 9
21 17 12
21 18 18
21 19 11
21 20 26
22 0 25
22 1 39
22 2 19
22 3 36
22 4 37
22 5 2
22 6 18
22 7 1
22 9 20
22 10 40
22 11 9
22 12 17
22 13 33
22 14 24
22 15 14
22 18 30
22 19 24
22 20 24
22 21 32
23 0 9
23 1 10
23 2 31
23 3 30
23 4 6
23 5 33
23 6 33
23 7 33
23 8 1
23 9 16
23 10 33
23 11 38
23 13 40
23 14 33
23 15 22
23 16 23
23 17 11
23 18 9
23 19 2
23 20 32
23 22 21
24 0 8
24 1 2
24 2 16
24 3 10
24 4 32
24 5 26
24 6 1
24 8 38
24 9 20
24 10 12
24 11 3
24 12 14
24 13 17
24 14 25
24 15 15
24 16 11
24 17 20
24 18 29
24 19 19
24 20 19
24 21 3
24 22 31
24 23 8
25 0 27
25 1 13
25 2 34
25 3 12
25 4 13
25 5 28
25 6 17
25 7 37
25 8 28
25 9 6
25 10 38
25 12 19
25 13 34
25 14 11
25 15 17
25 16 11
25 17 30
25 18 15
25 19 8
25 20 11
25 21 27
25 22 27
25 23 13
25 24 23
26 0 19
26 2 4
26 3 7
26 4 14
26 5 23
26 7 17
26 8 21
26 9 25
26 10 9
26 11 34
26 12 12
26 13 38
26 14 9
26 16 32
26 17 10
26 18 30
26 19 32
26 20 39
26 21 38
26 23 29
26 24 33
26 25 17
27 0 13
27 1 38
27 2 14
27 3 30
27 4 12
27 6 19
27 7 8
27 8 31
27 9 4
27 10 13
27 11 27
27 12 25
27 13 37
27 14 7
27 15 28
27 16 37
27 17 32
27 18 28
27 19 7
27 20 35
27 21 40
27 22 14
27 23 4
27 25 17
27 26 27
28 0 4
28 1 34
28 2 12
28 3 8
28 4 5
28 5 33
28 6 1
28 7 15
28 8 27
28 9 9
28 10 28
28 11 37
28 12 31
28 13 19
28 14 17
28 15 28
28 16 32
28 17 18
28 18 10
28 19 32
28 20 40
28 21 13
28 22 2
28 23 24
28 24 25
28 25 7
28 26 17
28 27 22
29 0 14
29 1 27
29 2 20
29 3 7
29 4 22
29 5 14
29 6 24
29 7 16
29 8 39
29 9 17
29 10 13
29 11 11
29 13 15
29 14 6
29 15 35
29 16 26
29 17 16
29 18 35
29 20 4
29 21 6
29 22 33
29 23 38
29 24 16
29 25 30
29 26 27
29 27 7
29 28 34
30 0 16
30 1 10
30 2 25
30 3 12
30 4 11
30 5 35
30 6 10
30 7 19
30 8 10
30 9 15
30 10 24
30 11 24
30 12 15
30 13 31
30 14 1
30 15 22
30 16 1
30 17 11
30 18 2
30 20 34
30 21 29
30 22 19
30 23 16
30 25 22
30 26 10
30 27 8
30 28 19
30 29 6
31 0 25
31 2 5
31 3 3
31 4 10
31 5 11
31 6 25
31 7 38
31 8 16
31 9 32
31 10 11
31 11 26
31 12 37
31 13 30
31 14 18
31 16 14
31 18 30
31 19 10
31 20 8
31 21 14
31 22 20
31 23 8
31 24 39
31 25 28
31 26 31
31 27 30
31 28 11
31 29 11
31 30 1
32 0 9
32 1 14
32 2 4
32 3 21
32 4 9
32 5 9
32 6 16
32 7 17
32 8 27
32 9 22
32 10 40
32 11 15
32 12 31
32 13 37
32 14 2
32 15 22
32 16 33
32 17 37
32 18 11
32 19 12
32 20 19
32 21 35
32 22 12
32 23 18
32 24 38
32 25 31
32 26 28
32 27 16
32 28 16
32 29 24
32 30 40
32 31 16
33 0 8
33 1 5
33 2 5
33 3 11
33 4 1
33 5 21
33 6 9
33 8 39
33 9 36
33 10 35
33 11 4
33 12 17
33 13 40
33 14 36
33 15 33
33 16 7
33 17 15
33 18 11
33 19 7
33 20 32
33 21 35
33 22 38
33 23 39
33 24 36
33 25 29
33 26 1
33 27 34
33 28 39
33 29 13
33 30 23
33 31 1
33 32 24
34 0 20
34 1 15
34 2 24
34 3 1
34 4 39
34 5 37
34 6 3
34 7 2
34 8 35
34 9 39
34 10 4
34 11 2
34 12 29
34 13 7
34 14 39
34 15 40
34 16 2
34 17 12
34 18 14
34 19 27
34 20 23
34 21 23
34 22 3
34 23 18
34 24 38
34 26 36
34 28 36
34 31 39
34 32 25
34 33 11
35 0 6
35 2 26
35 3 11
35 4 20
35 5 32
35 6 23
35 7 13
35 8 11
35 9 28
35 10 12
35 11 2
35 12 17
35 13 25
35 14 34
35 15 9
35 16 37
35 17 24
35 18 14
35 19 8
35 20 32
35 21 11
35 22 4
35 23 35
35 24 4
35 25 15
35 26 18
35 27 22
35 28 18
35 30 11
35 32 8
35 33 37
35 34 26
36 0 26
36 1 24
36 2 20
36 3 1
36 6 14
36 8 38
36 9 7
36 10 23
36 11 38
36 12 21
36 13 5
36 14 36
36 15 23
36 16 27
36 18 9
36 19 35
36 20 15
36 21 2
36 22 38
36 23 1
36 24 14
36 25 21
36 26 20
36 27 21
36 28 1
36 29 28
36 30 20
36 31 35
36 32 37
36 33 27
36 34 16
36 35 4
37 0 31
37 1 28
37 2 19
37 3 9
37 4 21
37 6 7
37 7 29
37 8 3
37 9 15
37 11 37
37 12 11
37 13 37
37 14 6
37 15 32
37 16 29
37 17 4
37 18 24
37 19 6
37 20 20
37 21 6
37 22 7
37 23 18
37 24 19
37 25 32
37 26 7
37 28 34
37 29 14
37 31 23
37 32 2
37 33 28
37 34 2
37 35 34
37 36 7
38 0 38
38 1 20
38 2 12
38 3 22
38 4 38
38 5 20
38 6 9
38 7 20
38 8 35
38 9 6
38 11 23
38 12 15
38 13 8
38 14 1
38 15 18
38 16 36
38 17 29
38 19 11
38 20 38
38 21 36
38 24 20
38 25 38
38 26 20
38 27 27
38 28 28
38 29 2
38 31 13
38 32 3
38 33 29
38 34 30
38 35 39
38 36 19
38 37 24
39 0 30
39 1 31
39 2 17
39 3 28
39 4 6
39 5 10
39 6 1
39 8 25
39 9 9
39 10 22
39 11 31
39 13 33
39 15 26
39 17 16
39 18 35
39 19 23
39 20 34
39 21 3
39 22 20
39 23 35
39 24 8
39 25 2
39 26 38
39 27 24
39 28 34
39 29 40
39 30 9
39 31 7
39 32 16
39 33 25
39 34 35
39 35 32
39 37 14
39 38 15
40 0 16
40 1 15
40 2 29
40 3 3
40 4 40
40 6 32
40 7 37
40 8 5
40 10 29
40 11 16
40 12 4
40 13 26
40 14 38
40 16 20
40 18 13
40 19 7
40 20 24
40 21 10
40 22 33
40 23 31
40 24 19
40 25 23
40 26 3
40 28 2
40 29 6
40 30 35
40 31 9
40 33 35
40 34 29
40 35 22
40 36 38
40 37 32
40 38 19
40 39 39
41 0 20
41 1 19
41 2 2
41 3 35
41 4 36
41 5 5
41 6 33
41 7 33
41 8 7
41 9 25
41 10 8
41 11 18
41 12 16
41 13 35
41 14 16
41 15 28
41 16 17
41 17 38
41 18 27
41 19 28
41 20 8
41 21 27
41 22 29
41 23 22
41 24 12
41 26 5
41 27 20
41 28 28
41 29 29
41 30 27
41 31 23
41 32 31
41 33 14
41 34 16
41 35 23
41 36 15
41 37 24
41 38 28
41 39 17
42 0 5
42 1 2
42 2 11
42 3 12
42 4 39
42 5 5
42 6 24
42 7 6
42 8 34
42 9 27
42 10 39
42 11 19
42 12 13
42 13 17
42 14 19
42 15 26
42 16 36
42 17 13
42 18 34
42 19 16
42 20 26
42 21 3
42 22 10
42 23 18
42 24 39
42 25 27
42 27 18
42 28 36
42 29 14
42 30 21
42 31 39
42 32 4
42 33 39
42 34 32
42 36 29
42 37 6
42 38 38
42 39 31
42 40 12
42 41 9
43 0 30
43 1 9
43 2 16
43 3 11
43 4 16
43 6 9
43 7 37
43 8 31
43 9 7
43 10 22
43 11 20
43 12 9
43 13 19
43 14 32
43 15 24
43 16 35
43 17 25
43 18 20
43 19 4
43 20 17
43 21 35
43 22 1
43 23 36
43 24 1
43 25 8
43 26 22
43 27 39
43 28 6
43 29 4
43 30 2
43 31 39
43 32 40
43 33 29
43 34 16
43 35 20
43 36 7
43 38 6
43 39 21
43 40 21
43 41 36
43 42 15
44 0 23
44 1 9
44 2 16
44 3 1
44 4 19
44 5 22
44 6 18
44 8 27
44 9 36
44 10 32
44 11 25
44 12 12
44 13 33
44 14 1
44 15 34
44 16 14
44 18 11
44 19 4
44 20 27
44 21 39
44 22 21
44 23 20
44 24 35
44 25 38
44 26 12
44 28 7
44 29 36
44 30 9
44 31 16
44 32 7
44 33 28
44 34 27
44 35 21
44 36 14
44 37 7
44 38 13
44 39 1
44 40 19
44 41 11
44 42 28
44 43 8
45 0 28
45 1 14
45 2 14
45 3 12
45 5 16
45 6 24
45 7 19
45 8 19
45 11 40
45 12 32
45 13 27
45 17 30
45 19 24
45 20 9
45 21 36
45 22 21
45 23 16
45 24 38
45 25 3
45 27 19
45 28 11
45 29 2
45 30 37
45 31 8
45 32 6
45 33 3
45 35 29
45 36 39
45 37 24
45 38 10
45 40 3
45 42 15
45 43 20
45 44 23
46 0 11
46 3 17
46 4 19
46 6 4
46 8 39
46 9 12
46 10 14
46 11 18
46 12 23
46 13 21
46 14 19
46 15 18
46 16 17
46 17 15
46 18 17
46 19 7
46 20 25
46 22 39
46 23 4
46 24 18
46 26 7
46 27 35
46 28 15
46 29 7
46 30 10
46 31 18
46 32 5
46 33 40
46 34 1
46 35 15
46 36 36
46 37 5
46 38 8
46 39 20
46 40 12
46 41 9
46 42 37
46 43 25
46 44 40
46 45 29
47 0 22
47 1 9
47 2 26
47 3 15
47 4 7
47 5 26
47 7 13
47 8 12
47 9 11
47 10 8
47 11 25
47 13 26
47 14 31
47 16 32
47 17 13
47 18 6
47 19 39
47 20 24
47 21 30
47 22 19
47 24 2
47 25 35
47 26 4
47 28 33
47 29 38
47 30 24
47 31 33
47 32 32
47 33 5
47 34 31
47 35 5
47 36 38
47 37 6
47 38 30
47 40 20
47 41 30
47 42 29
47 43 21
47 44 24
47 45 28
47 46 26
48 0 28
48 3 31
48 7 10
48 8 2
48 9 29
48 10 38
48 11 33
48 12 13
48 13 12
48 14 38
48 15 19
48 16 10
48 17 20
48 19 31
48 20 37
48 22 38
48 23 27
48 24 10
48 25 24
48 27 18
48 28 24
48 29 33
48 30 6
48 31 40
48 32 7
48 33 9
48 34 7
48 36 5
48 37 11
48 38 37
48 39 35
48 40 35
48 41 35
48 42 17
48 43 31
48 44 13
48 45 21
48 46 22
48 47 1
49 0 8
49 1 40
49 2 9
49 4 35
49 5 18
49 6 26
49 7 29
49 8 26
49 9 28
49 10 24
49 11 24
49 12 8
49 13 19
49 14 33
49 15 2
49 16 18
49 18 20
49 19 7
49 20 34
49 21 35
49 22 25
49 23 7
49 24 15
49 25 13
49 27 29
49 28 25
49 29 22
49 30 23
49 32 36
49 33 39
49 34 17
49 35 34
49 36 5
49 37 37
49 39 3
49 40 5
49 41 23
49 42 5
49 43 15
49 44 8
49 46 1
49 47 2
49 48 9
50 0 31
50 1 1
50 2 37
50 3 22
50 4 30
50 5 14
50 6 15
50 7 33
50 8 2
50 9 13
50 10 28
50 11 21
50 12 12
50 13 27
50 16 1
50 17 28
50 19 12
50 20 28
50 21 7
50 23 19
50 24 6
50 26 29
50 27 16
50 28 20
50 29 7
50 30 40
50 32 5
50 33 20
50 35 26
50 36 18
50 37 11
50 38 35
50 39 29
50 40 8
50 42 34
50 43 23
50 45 15
50 46 4
50 47 35
50 48 29
50 49 6
51 0 3
51 1 29
51 2 4
51 3 7
51 4 34
51 5 7
51 6 3
51 7 12
51 8 13
51 9 21
51 10 27
51 11 32
51 12 39
51 14 7
51 16 9
51 17 38
51 19 7
51 20 27
51 21 40
51 22 27
51 23 12
51 24 38
51 25 32
51 26 37
51 27 28
51 28 31
51 29 19
51 30 4
51 31 40
51 32 23
51 33 8
51 34 23
51 35 10
51 36 30
51 37 15
51 38 15
51 39 17
51 40 32
51 41 5
51 42 10
51 43 22
51 44 18
51 45 12
51 46 20
51 47 24
51 48 6
51 49 27
51 50 12
52 0 25
52 1 32
52 2 28
52 3 8
52 4 31
52 5 33
52 6 3
52 7 15
52 8 8
52 10 7
52 11 2
52 12 21
52 13 8
52 14 37
52 15 30
52 16 21
52 17 25
52 18 35
52 19 40
52 20 36
52 21 39
52 22 27
52 23 11
52 24 1
52 25 30
52 26 23
52 27 36
52 28 3
52 29 10
52 30 4
52 32 13
52 33 9
52 34 27
52 35 13
52 36 36
52 37 35
52 38 16
52 39 35
52 40 27
52 41 21
52 42 20
52 43 27
52 44 23
52 45 33
52 46 25
52 47 19
52 48 29
52 49 13
52 50 40
52 51 40
53 0 31
53 1 10
53 2 10
53 3 18
53 4 1
53 5 25
53 6 34
53 7 38
53 8 23
53 9 34
53 10 36
53 11 15
53 12 11
53 13 20
53 14 2
53 15 11
53 17 26
53 18 11
53 19 4
53 20 20
53 21 12
53 22 40
53 23 40
53 24 13
53 25 31
53 26 22
53 27 27
53 28 13
53 29 38
53 30 5
53 31 2
53 32 23
53 33 20
53 34 31
53 35 21
53 37 15
53 38 31
53 39 21
53 40 23
53 41 34
53 43 11
53 44 16
53 45 24
53 46 30
53 47 17
53 48 20
53 49 25
53 50 6
53 51 26
53 52 19
54 0 31
54 1 33
54 2 12
54 3 1
54 4 33
54 5 3
54 6 34
54 7 31
54 9 15
54 10 13
54 11 18
54 13 10
54 14 9
54 15 34
54 16 20
54 17 34
54 18 19
54 19 22
54 20 5
54 21 39
54 22 28
54 23 25
54 25 33
54 27 4
54 28 28
54 30 24
54 31 6
54 32 2
54 33 12
54 34 35
54 35 13
54 36 37
54 37 16
54 40 36
54 41 5
54 42 24
54 43 17
54 44 3
54 45 3
54 46 18
54 47 4
54 48 27
54 49 16
54 50 35
54 51 35
54 52 21
54 53 16
55 0 26
55 1 22
55 2 24
55 3 34
55 4 18
55 5 13
55 6 11
55 7 34
55 8 24
55 9 35
55 11 38
55 12 3
55 13 31
55 14 25
55 15 26
55 16 31
55 18 9
55 19 16
55 20 22
55 21 39
55 22 16
55 25 11
55 26 25
55 28 13
55 29 22
55 30 40
55 31 30
55 32 33
55 33 18
55 34 12
55 36 3
55 37 2
55 38 2
55 40 17
55 41 18
55 42 27
55 43 19
55 44 33
55 45 11
55 46 3
55 47 35
55 48 20
55 49 38
55 50 40
55 51 9
55 52 18
55 53 25
55 54 14
56 1 26
56 2 31
56 3 15
56 4 20
56 5 39
56 6 23
56 7 39
56 8 29
56 9 12
56 10 20
56 11 17
56 12 3
56 13 6
56 15 19
56 16 30
56 17 12
56 18 18
56 19 1
56 20 5
56 21 38
56 22 26
56 23 34
56 24 36
56 25 29
56 26 36
56 27 18
56 28 33
56 29 14
56 30 33
56 32 21
56 33 25
56 34 24
56 35 29
56 36 15
56 38 40
56 39 36
56 40 38
56 41 34
56 42 38
56 43 23
56 44 2
56 45 23
56 46 2
56 47 2
56 48 2
56 49 14
56 50 3
56 51 6
56 52 13
56 53 34
56 54 6
56 55 18
57 0 40
57 1 9
57 2 12
57 4 21
57 5 26
57 6 34
57 7 13
57 8 29
57 9 4
57 10 8
57 11 7
57 12 33
57 13 9
57 14 30
57 15 15
57 16 24
57 17 7
57 18 8
57 19 6
57 20 26
57 21 27
57 22 35
57 23 33
57 24 5
57 25 33
57 26 15
57 27 38
57 28 21
57 29 27
57 30 18
57 31 29
57 32 33
57 34 31
57 35 24
57 36 32
57 37 39
57 38 32
57 39 37
57 40 8
57 41 5
57 42 33
57 43 18
57 44 16
57 45 5
57 46 30
57 47 5
57 48 27
57 49 25
57 51 10
57 52 32
57 53 6
57 54 30
57 56 10
58 0 31
58 1 28
58 2 5
58 3 26
58 4 21
58 5 37
58 6 15
58 7 8
58 8 17
58 9 4
58 10 8
58 11 10
58 12 32
58 13 39
58 14 17
58 15 36
58 17 6
58 18 14
58 19 17
58 21 6
58 22 11
58 23 12
58 24 8
58 25 1
58 26 27
58 27 34
58 28 21
58 29 2
58 30 35
58 31 7
58 33 8
58 34 35
58 35 18
58 36 22
58 37 31
58 38 22
58 39 31
58 40 40
58 41 27
58 43 12
58 44 36
58 45 38
58 46 17
58 47 40
58 48 15
58 49 17
58 50 20
58 51 40
58 52 15
58 53 36
58 56 40
59 0 8
59 2 30
59 3 17
59 4 38
59 5 4
59 6 7
59 8 8
59 9 31
59 10 32
59 11 9
59 12 13
59 13 35
59 14 7
59 15 5
59 16 12
59 17 15
59 18 34
59 19 5
59 20 39
59 21 23
59 23 4
59 24 19
59 26 40
59 28 16
59 29 10
59 30 7
59 31 5
59 32 33
59 34 29
59 35 40
59 36 8
59 38 13
59 39 29
59 40 22
59 41 9
59 42 24
59 43 32
59 44 30
59 45 22
59 46 9
59 47 10
59 48 3
59 49 27
59 50 30
59 51 15
59 52 30
59 53 24
59 54 1
59 55 11
59 56 8
59 58 16
